NAME : traveling-santa-2018-prime-paths.28694.tour
COMMENT : Length = 28694
COMMENT : Found by LKH [Keld Helsgaun] Sun Jun 12 20:00:07 2022
TYPE : TOUR
DIMENSION : 100
TOUR_SECTION
1
7
35
5
40
69
2
25
63
93
59
67
6
99
13
37
74
77
58
4
53
64
8
41
48
87
94
81
32
57
66
19
24
92
22
61
60
86
11
56
54
47
34
76
3
33
97
50
80
10
31
49
89
71
12
21
43
55
20
27
65
96
88
52
14
26
68
15
30
79
38
9
72
36
84
95
90
82
46
100
44
85
73
39
62
45
29
28
16
17
23
51
91
70
75
78
18
83
98
42
-1
EOF
